1806
90 62 81 54 12 32 21 56 36 70 43 64 72 96 22 6 37 26 80 75 14 98 16 5 86 61 24 31 77 35 85 88 25 51 41 4 48 42 74 9 65 10 45 84 2 66 89 8 30 93 33 63 40 11 53 52 1 44 20 99 19 18 55 39 17 58 49 47 13 34 97 38 79 92 23 46 82 91 60 76 95 94 59 57 3 87 7 68 73 15 71 69 28 83 29 78 50 27 67 
